certificates/rado_a9_c139_N27.cnf
c Rad2 upper bound instance: x1 + 9*x2 - x3 = 139, interval [1,27]
p cnf 27 160
1 6 16 0
-1 -6 -16 0
1 15 17 0
-1 -15 -17 0
1 18 24 0
-1 -18 -24 0
2 7 16 0
-2 -7 -16 0
2 16 17 0
-2 -16 -17 0
2 18 25 0
-2 -18 -25 0
3 8 16 0
-3 -8 -16 0
3 17 0
-3 -17 0
3 18 26 0
-3 -18 -26 0
4 9 16 0
-4 -9 -16 0
4 17 18 0
-4 -17 -18 0
4 18 27 0
-4 -18 -27 0
1 5 15 0
-1 -5 -15 0
5 10 16 0
-5 -10 -16 0
5 17 19 0
-5 -17 -19 0
2 6 15 0
-2 -6 -15 0
6 11 16 0
-6 -11 -16 0
6 17 20 0
-6 -17 -20 0
3 7 15 0
-3 -7 -15 0
7 12 16 0
-7 -12 -16 0
7 17 21 0
-7 -17 -21 0
4 8 15 0
-4 -8 -15 0
8 13 16 0
-8 -13 -16 0
8 17 22 0
-8 -17 -22 0
5 9 15 0
-5 -9 -15 0
9 14 16 0
-9 -14 -16 0
9 17 23 0
-9 -17 -23 0
6 10 15 0
-6 -10 -15 0
10 15 16 0
-10 -15 -16 0
10 17 24 0
-10 -17 -24 0
7 11 15 0
-7 -11 -15 0
11 16 0
-11 -16 0
11 17 25 0
-11 -17 -25 0
8 12 15 0
-8 -12 -15 0
12 16 17 0
-12 -16 -17 0
12 17 26 0
-12 -17 -26 0
9 13 15 0
-9 -13 -15 0
13 16 18 0
-13 -16 -18 0
13 17 27 0
-13 -17 -27 0
1 14 0
-1 -14 0
10 14 15 0
-10 -14 -15 0
14 16 19 0
-14 -16 -19 0
2 14 15 0
-2 -14 -15 0
11 15 0
-11 -15 0
15 16 20 0
-15 -16 -20 0
3 14 16 0
-3 -14 -16 0
12 15 16 0
-12 -15 -16 0
16 21 0
-16 -21 0
4 14 17 0
-4 -14 -17 0
13 15 17 0
-13 -15 -17 0
16 17 22 0
-16 -17 -22 0
5 14 18 0
-5 -14 -18 0
14 15 18 0
-14 -15 -18 0
16 18 23 0
-16 -18 -23 0
6 14 19 0
-6 -14 -19 0
15 19 0
-15 -19 0
16 19 24 0
-16 -19 -24 0
7 14 20 0
-7 -14 -20 0
16 20 25 0
-16 -20 -25 0
8 14 21 0
-8 -14 -21 0
15 17 21 0
-15 -17 -21 0
16 21 26 0
-16 -21 -26 0
9 14 22 0
-9 -14 -22 0
15 18 22 0
-15 -18 -22 0
16 22 27 0
-16 -22 -27 0
1 13 23 0
-1 -13 -23 0
10 14 23 0
-10 -14 -23 0
15 19 23 0
-15 -19 -23 0
2 13 24 0
-2 -13 -24 0
11 14 24 0
-11 -14 -24 0
15 20 24 0
-15 -20 -24 0
3 13 25 0
-3 -13 -25 0
12 14 25 0
-12 -14 -25 0
15 21 25 0
-15 -21 -25 0
4 13 26 0
-4 -13 -26 0
13 14 26 0
-13 -14 -26 0
15 22 26 0
-15 -22 -26 0
5 13 27 0
-5 -13 -27 0
14 27 0
-14 -27 0
15 23 27 0
-15 -23 -27 0
