certificates/rado_a9_c139_N27.drat
18 14 0
-27 0
14 0
-1 0
-18 0
24 0
4 0
-11 0
-17 0
16 0
15 0
3 0
13 0
25 0
-19 0
-21 0
-20 0
-8 0
-9 0
0
